words_hard_train/4285.qaiger
aag 41 21 0 1 20
2
4
8
12
14
18
22
26
28
32
34
40
42
46
54
56
62
64
68
72
74
83
6 2 4
10 6 8
16 12 14
20 16 18
24 20 22
30 26 28
36 32 34
38 30 36
44 40 42
48 44 46
50 38 48
52 24 50
58 54 56
60 52 58
66 62 64
70 66 68
76 72 74
78 70 76
80 60 78
82 10 81
i0 1 x2[7]
i1 1 x1[7]
i2 2 y1[7]
i3 1 x2[1]
i4 1 x2[5]
i5 1 x1[6]
i6 1 x1[5]
i7 1 x1[2]
i8 1 x2[4]
i9 1 x1[3]
i10 1 x1[4]
i11 1 x1[1]
i12 2 y1[6]
i13 2 y1[5]
i14 2 y1[3]
i15 2 y1[4]
i16 1 x2[2]
i17 1 x2[3]
i18 2 y1[2]
i19 2 y1[1]
i20 1 x2[6]
o0 bv[0]
c
simplified
  <=
    invert
      1
    and
      and
        1 x1
        1 x2
      2 y1
