words_hard_train/4285.qaiger.qdimacs
p cnf 41 61
a 32 1 2 37 6 7 9 11 13 14 16 17 20 31 0
e 3 4 5 8 10 12 15 18 19 21 22 23 24 25 26 27 28 29 30 33 34 35 36 38 39 40 41 0
-1 -2 3 0
1 -3 0
2 -3 0
-3 -4 5 0
3 -5 0
4 -5 0
-6 -7 8 0
6 -8 0
7 -8 0
-8 -9 10 0
8 -10 0
9 -10 0
-10 -11 12 0
10 -12 0
11 -12 0
-13 -14 15 0
13 -15 0
14 -15 0
-16 -17 18 0
16 -18 0
17 -18 0
-15 -18 19 0
15 -19 0
18 -19 0
-20 -21 22 0
20 -22 0
21 -22 0
-22 -23 24 0
22 -24 0
23 -24 0
-19 -24 25 0
19 -25 0
24 -25 0
-12 -25 26 0
12 -26 0
25 -26 0
-27 -28 29 0
27 -29 0
28 -29 0
-26 -29 30 0
26 -30 0
29 -30 0
-31 -32 33 0
31 -33 0
32 -33 0
-33 -34 35 0
33 -35 0
34 -35 0
-36 -37 38 0
36 -38 0
37 -38 0
-35 -38 39 0
35 -39 0
38 -39 0
-30 -39 40 0
30 -40 0
39 -40 0
-5 40 41 0
5 -41 0
-40 -41 0
-41 0
